p cnf 156 638
44 91 0
65 68 71 0
54 76 0
61 83 0
51 80 112 0
84 115 0
39 96 101 0
58 106 0
126 128 0
57 75 89 0
100 107 0
41 69 79 138 0
38 143 0
30 33 36 0
29 49 52 104 0
43 45 77 0
24 27 28 46 63 0
19 20 22 90 0
17 67 72 0
15 53 55 0
66 110 0
50 81 113 114 0
85 116 119 0
98 120 121 0
34 122 124 0
105 125 0
25 47 64 127 129 0
21 92 93 131 132 0
18 73 133 149 0
134 137 146 0
62 108 0
42 70 78 139 0
99 140 142 151 0
102 144 0
-109 -112 0
-109 -115 0
-96 -109 0
-112 -115 0
-96 -112 0
-96 -115 0
-28 -45 0
-22 -45 0
-45 -145 0
-22 -28 0
-28 -145 0
-22 -145 0
-81 -110 0
-85 -110 0
-40 -110 0
-81 -85 0
-40 -81 0
-40 -85 0
-47 -59 0
-59 -92 0
-59 -134 0
-47 -92 0
-47 -134 0
-92 -134 0
-45 -109 0
-109 -110 0
-59 -109 0
-45 -110 0
-45 -59 0
-59 -110 0
-28 -112 0
-81 -112 0
-47 -112 0
-28 -81 0
-28 -47 0
-47 -81 0
-22 -115 0
-85 -115 0
-92 -115 0
-22 -85 0
-22 -92 0
-85 -92 0
-96 -145 0
-40 -96 0
-96 -134 0
-40 -145 0
-134 -145 0
-40 -134 0
-126 -148 0
-130 -148 0
-148 -150 0
-147 -148 0
-89 -148 0
-126 -130 0
-126 -150 0
-126 -147 0
-89 -126 0
-130 -150 0
-130 -147 0
-89 -130 0
-147 -150 0
-89 -150 0
-89 -147 0
-79 -100 0
-87 -100 0
-100 -152 0
-100 -143 0
-36 -100 0
-79 -87 0
-79 -152 0
-79 -143 0
-36 -79 0
-87 -152 0
-87 -143 0
-36 -87 0
-143 -152 0
-36 -152 0
-36 -143 0
-46 -52 0
-52 -90 0
-52 -72 0
-52 -135 0
-52 -55 0
-46 -90 0
-46 -72 0
-46 -135 0
-46 -55 0
-72 -90 0
-90 -135 0
-55 -90 0
-72 -135 0
-55 -72 0
-55 -135 0
-113 -154 0
-116 -154 0
-120 -154 0
-95 -154 0
-34 -154 0
-113 -116 0
-113 -120 0
-95 -113 0
-34 -113 0
-116 -120 0
-95 -116 0
-34 -116 0
-95 -120 0
-34 -120 0
-34 -95 0
-64 -125 0
-21 -125 0
-18 -125 0
-125 -137 0
-16 -125 0
-21 -64 0
-18 -64 0
-64 -137 0
-16 -64 0
-18 -21 0
-21 -137 0
-16 -21 0
-18 -137 0
-16 -18 0
-16 -137 0
-62 -70 0
-62 -155 0
-62 -140 0
-62 -102 0
-31 -62 0
-70 -155 0
-70 -140 0
-70 -102 0
-31 -70 0
-140 -155 0
-102 -155 0
-31 -155 0
-102 -140 0
-31 -140 0
-31 -102 0
-100 -148 0
-52 -148 0
-148 -154 0
-125 -148 0
-62 -148 0
-52 -100 0
-100 -154 0
-100 -125 0
-62 -100 0
-52 -154 0
-52 -125 0
-52 -62 0
-125 -154 0
-62 -154 0
-62 -125 0
-79 -126 0
-46 -126 0
-113 -126 0
-64 -126 0
-70 -126 0
-46 -79 0
-79 -113 0
-64 -79 0
-70 -79 0
-46 -113 0
-46 -64 0
-46 -70 0
-64 -113 0
-70 -113 0
-64 -70 0
-87 -130 0
-90 -130 0
-116 -130 0
-21 -130 0
-130 -155 0
-87 -90 0
-87 -116 0
-21 -87 0
-87 -155 0
-90 -116 0
-21 -90 0
-90 -155 0
-21 -116 0
-116 -155 0
-21 -155 0
-150 -152 0
-72 -150 0
-120 -150 0
-18 -150 0
-140 -150 0
-72 -152 0
-120 -152 0
-18 -152 0
-140 -152 0
-72 -120 0
-18 -72 0
-72 -140 0
-18 -120 0
-120 -140 0
-18 -140 0
-143 -147 0
-135 -147 0
-95 -147 0
-137 -147 0
-102 -147 0
-135 -143 0
-95 -143 0
-137 -143 0
-102 -143 0
-95 -135 0
-135 -137 0
-102 -135 0
-95 -137 0
-95 -102 0
-102 -137 0
-36 -89 0
-55 -89 0
-34 -89 0
-16 -89 0
-31 -89 0
-36 -55 0
-34 -36 0
-16 -36 0
-31 -36 0
-34 -55 0
-16 -55 0
-31 -55 0
-16 -34 0
-31 -34 0
-16 -31 0
-80 -111 0
-84 -111 0
-111 -153 0
-39 -111 0
-37 -111 0
-80 -84 0
-80 -153 0
-39 -80 0
-37 -80 0
-84 -153 0
-39 -84 0
-37 -84 0
-39 -153 0
-37 -153 0
-37 -39 0
-58 -128 0
-58 -94 0
-58 -74 0
-58 -136 0
-57 -58 0
-94 -128 0
-74 -128 0
-128 -136 0
-57 -128 0
-74 -94 0
-94 -136 0
-57 -94 0
-74 -136 0
-57 -74 0
-57 -136 0
-138 -156 0
-118 -156 0
-141 -156 0
-38 -156 0
-33 -156 0
-118 -138 0
-138 -141 0
-38 -138 0
-33 -138 0
-118 -141 0
-38 -118 0
-33 -118 0
-38 -141 0
-33 -141 0
-33 -38 0
-43 -63 0
-20 -43 0
-17 -43 0
-14 -43 0
-15 -43 0
-20 -63 0
-17 -63 0
-14 -63 0
-15 -63 0
-17 -20 0
-14 -20 0
-15 -20 0
-14 -17 0
-15 -17 0
-14 -15 0
-13 -127 0
-13 -131 0
-13 -149 0
-13 -146 0
-13 -88 0
-127 -131 0
-127 -149 0
-127 -146 0
-88 -127 0
-131 -149 0
-131 -146 0
-88 -131 0
-146 -149 0
-88 -149 0
-88 -146 0
-12 -78 0
-12 -86 0
-12 -151 0
-12 -144 0
-12 -35 0
-78 -86 0
-78 -151 0
-78 -144 0
-35 -78 0
-86 -151 0
-86 -144 0
-35 -86 0
-144 -151 0
-35 -151 0
-35 -144 0
-58 -111 0
-111 -156 0
-43 -111 0
-13 -111 0
-12 -111 0
-58 -156 0
-43 -58 0
-13 -58 0
-12 -58 0
-43 -156 0
-13 -156 0
-12 -156 0
-13 -43 0
-12 -43 0
-12 -13 0
-80 -128 0
-80 -138 0
-63 -80 0
-80 -127 0
-78 -80 0
-128 -138 0
-63 -128 0
-127 -128 0
-78 -128 0
-63 -138 0
-127 -138 0
-78 -138 0
-63 -127 0
-63 -78 0
-78 -127 0
-84 -94 0
-84 -118 0
-20 -84 0
-84 -131 0
-84 -86 0
-94 -118 0
-20 -94 0
-94 -131 0
-86 -94 0
-20 -118 0
-118 -131 0
-86 -118 0
-20 -131 0
-20 -86 0
-86 -131 0
-74 -153 0
-141 -153 0
-17 -153 0
-149 -153 0
-151 -153 0
-74 -141 0
-17 -74 0
-74 -149 0
-74 -151 0
-17 -141 0
-141 -149 0
-141 -151 0
-17 -149 0
-17 -151 0
-149 -151 0
-39 -136 0
-38 -39 0
-14 -39 0
-39 -146 0
-39 -144 0
-38 -136 0
-14 -136 0
-136 -146 0
-136 -144 0
-14 -38 0
-38 -146 0
-38 -144 0
-14 -146 0
-14 -144 0
-144 -146 0
-37 -57 0
-33 -37 0
-15 -37 0
-37 -88 0
-35 -37 0
-33 -57 0
-15 -57 0
-57 -88 0
-35 -57 0
-15 -33 0
-33 -88 0
-33 -35 0
-15 -88 0
-15 -35 0
-35 -88 0
-11 -91 0
-11 -71 0
-11 -54 0
-71 -91 0
-54 -91 0
-54 -71 0
-10 -69 0
-9 -69 0
-30 -69 0
-9 -10 0
-10 -30 0
-9 -30 0
-93 -129 0
-73 -129 0
-56 -129 0
-73 -93 0
-56 -93 0
-56 -73 0
-117 -139 0
-139 -142 0
-32 -139 0
-117 -142 0
-32 -117 0
-32 -142 0
-11 -69 0
-11 -129 0
-11 -139 0
-69 -129 0
-69 -139 0
-129 -139 0
-10 -91 0
-91 -93 0
-91 -117 0
-10 -93 0
-10 -117 0
-93 -117 0
-9 -71 0
-71 -73 0
-71 -142 0
-9 -73 0
-9 -142 0
-73 -142 0
-30 -54 0
-54 -56 0
-32 -54 0
-30 -56 0
-30 -32 0
-32 -56 0
-8 -61 0
-61 -101 0
-61 -123 0
-8 -101 0
-8 -123 0
-101 -123 0
-7 -106 0
-6 -7 0
-7 -75 0
-6 -106 0
-75 -106 0
-6 -75 0
-29 -77 0
-5 -29 0
-29 -53 0
-5 -77 0
-53 -77 0
-5 -53 0
-4 -66 0
-3 -4 0
-4 -122 0
-3 -66 0
-66 -122 0
-3 -122 0
-7 -61 0
-29 -61 0
-4 -61 0
-7 -29 0
-4 -7 0
-4 -29 0
-8 -106 0
-8 -77 0
-8 -66 0
-77 -106 0
-66 -106 0
-66 -77 0
-6 -101 0
-5 -101 0
-3 -101 0
-5 -6 0
-3 -6 0
-3 -5 0
-75 -123 0
-53 -123 0
-122 -123 0
-53 -75 0
-75 -122 0
-53 -122 0
-26 -48 0
-48 -68 0
-48 -76 0
-26 -68 0
-26 -76 0
-68 -76 0
-51 -83 0
-83 -97 0
-2 -83 0
-51 -97 0
-2 -51 0
-2 -97 0
-60 -114 0
-60 -121 0
-60 -124 0
-114 -121 0
-114 -124 0
-121 -124 0
-42 -108 0
-99 -108 0
-1 -108 0
-42 -99 0
-1 -42 0
-1 -99 0
-48 -83 0
-48 -60 0
-48 -108 0
-60 -83 0
-83 -108 0
-60 -108 0
-26 -51 0
-26 -114 0
-26 -42 0
-51 -114 0
-42 -51 0
-42 -114 0
-68 -97 0
-68 -121 0
-68 -99 0
-97 -121 0
-97 -99 0
-99 -121 0
-2 -76 0
-76 -124 0
-1 -76 0
-2 -124 0
-1 -2 0
-1 -124 0
-23 -103 0
-44 -103 0
-65 -103 0
-23 -44 0
-23 -65 0
-44 -65 0
-27 -49 0
-19 -49 0
-49 -67 0
-19 -27 0
-27 -67 0
-19 -67 0
-50 -82 0
-82 -119 0
-82 -98 0
-50 -119 0
-50 -98 0
-98 -119 0
-25 -105 0
-105 -132 0
-105 -133 0
-25 -132 0
-25 -133 0
-132 -133 0
-49 -103 0
-82 -103 0
-103 -105 0
-49 -82 0
-49 -105 0
-82 -105 0
-23 -27 0
-23 -50 0
-23 -25 0
-27 -50 0
-25 -27 0
-25 -50 0
-19 -44 0
-44 -119 0
-44 -132 0
-19 -119 0
-19 -132 0
-119 -132 0
-65 -67 0
-65 -98 0
-65 -133 0
-67 -98 0
-67 -133 0
-98 -133 0
-41 -107 0
-24 -104 0
-104 -107 0
-24 -41 0
